
192 atoms
2 atom types
   0.0000000000   12.4447000000 xlo xhi
   0.0000000000   12.4447000000 ylo yhi
   0.0000000000   12.4447000000 zlo zhi
   0.0000000000    0.0000000000    0.0000000000 xy xz yz

Atoms # atomic

     1      1   12.3211000000    3.0806100000    1.2032000000
     2      1    5.3967000000    5.3582000000    2.7434400000
     3      1    0.8603300000    7.9796600000    2.1947500000
     4      1    2.0922900000    3.8737400000    5.1254800000
     5      1    5.4885500000   11.4155000000    0.0930999000
     6      1    8.7144800000    0.4505820000    2.3490600000
     7      1    5.4400100000    9.6771800000   10.5421000000
     8      1    6.7806700000   11.0874000000    2.4921800000
     9      1   10.6357000000   11.2535000000    1.1924400000
    10      1   10.9621000000    1.4121100000    7.9060600000
    11      1    3.8124500000    5.2232800000    9.4522900000
    12      1    4.3102600000    2.9367900000    1.5877100000
    13      1    0.0990381000   11.4139000000    4.4142100000
    14      1    5.0212700000    7.8659100000    2.3372500000
    15      1    9.6890400000   10.5251000000   11.1801000000
    16      1   11.2842000000    6.1967600000    5.2072000000
    17      1    2.1083400000    3.7249700000    0.0304223000
    18      1    1.2177200000    6.4491600000    4.2767700000
    19      1   11.3847000000    9.5089200000    3.1016800000
    20      1    8.4974600000    5.4725200000   11.3250000000
    21      1    7.5152600000    4.0357500000    2.2399300000
    22      1    2.2920500000    3.5885500000    7.8804600000
    23      1    4.6332300000    6.9050000000    7.2376900000
    24      1    4.6631200000   10.1972000000    3.9151600000
    25      1    4.7815600000    4.6972100000    5.4770300000
    26      1   11.5857000000    1.6655200000   10.4633000000
    27      1    8.6700600000    7.3671100000    4.6823100000
    28      1    6.1805300000    4.2866200000   10.5438000000
    29      1    1.7433300000    7.5453900000    6.7353800000
    30      1   10.7199000000    7.8396800000    7.6674600000
    31      1    6.0071100000    2.2379700000    5.4747100000
    32      1    6.0227900000    1.7320700000   12.2477000000
    33      1    2.3482400000   11.6916000000    2.9533700000
    34      1    0.3201520000    5.4501100000    8.0231100000
    35      1    7.6987000000    8.3299200000    2.4630700000
    36      1   11.6754000000    6.8275100000   10.6863000000
    37      1    1.7453000000    2.3736700000   10.2270000000
    38      1    7.4562500000    2.9786500000    8.3539500000
    39      1    2.7762600000    0.7997830000    6.9382700000
    40      1    7.8353700000    5.2353800000    6.2494300000
    41      1   10.3896000000    3.6900400000   11.7744000000
    42      1    2.8793300000    8.0374000000    0.5108600000
    43      1    9.7518200000    3.4734100000    6.1585500000
    44      1    0.0870542000    0.4977880000    0.2714800000
    45      1    8.5552900000    2.0953100000    0.3840070000
    46      1    8.6584200000    9.3003700000    6.7117400000
    47      1    2.8639700000   10.9646000000    8.2787800000
    48      1    8.6908400000    1.3872800000    4.8106700000
    49      1    6.7273100000    8.3533900000    8.5955400000
    50      1    8.0427000000    0.0366427000   10.0062000000
    51      1    6.1217200000   12.0354000000    7.4208400000
    52      1    2.4127500000   11.6492000000    0.2066900000
    53      1    4.3523000000    9.7246100000    6.4707200000
    54      1   11.2013000000    6.8282200000    0.9379600000
    55      1    2.1458700000    9.8500800000   10.6884000000
    56      1    3.9932700000    1.2795900000    3.7980000000
    57      1    8.9647700000    8.0395300000    0.0402773000
    58      1    8.8086700000    6.3289400000    8.9142800000
    59      1    1.9581200000    6.2766100000   11.1556000000
    60      1   12.0297000000    9.6290400000    9.7272700000
    61      1    8.6500300000   12.0706000000    6.8639400000
    62      1    0.2578090000    1.8573000000    3.7236100000
    63      1   10.1823000000    4.8610700000    2.6778000000
    64      1    0.6236070000    9.9792100000    7.1617900000
    65      2   11.5946000000    3.6388500000    0.7497030000
    66      2    5.3299400000    5.2167800000    3.7129000000
    67      2    1.1396200000    7.2970400000    2.9278200000
    68      2    1.6955500000    3.1937500000    4.5013300000
    69      2    4.4969200000   11.5916000000    0.2868400000
    70      2    8.0050300000   12.2665000000    2.4504300000
    71      2    4.5054500000    9.5014600000   10.3932000000
    72      2    7.1648200000   10.1845000000    2.3638300000
    73      2   10.2503000000   11.2366000000    0.2841080000
    74      2   11.8492000000    1.8894600000    7.7690300000
    75      2    4.6429200000    4.9880900000    9.8889100000
    76      2    4.6952600000    3.7234400000    2.0620100000
    77      2   12.0964000000   10.6667000000    4.0191300000
    78      2    4.3918200000    7.8126600000    1.5524100000
    79      2    9.1761300000   11.2759000000   10.7719000000
    80      2   11.3909000000    5.7892500000    6.0999600000
    81      2    2.0231600000    3.2134500000   11.5813000000
    82      2    0.2715990000    6.2499000000    4.5734600000
    83      2   10.6366000000    9.0352500000    3.5655400000
    84      2    8.5696300000    5.8079700000   10.3600000000
    85      2    7.5106400000    3.3431500000    1.5428500000
    86      2    2.7814800000    4.2817700000    8.4504900000
    87      2    4.5148900000    6.2904000000    8.0304400000
    88      2    5.4407000000   10.8110000000    3.6619800000
    89      2    5.1555700000    3.7471100000    5.4929100000
    90      2   11.6439000000    1.0220100000   11.1497000000
    91      2    8.1415400000    7.6873600000    3.9304800000
    92      2    5.9927400000    3.5324600000   11.1576000000
    93      2    2.7464700000    7.5409900000    6.8798600000
    94      2   11.3743000000    8.2497000000    8.2303200000
    95      2    6.9026500000    1.9101300000    5.0636600000
    96      2    5.2928800000    2.0010700000    0.4648220000
    97      2    1.5721800000   11.6338000000    3.5903900000
    98      2   12.4343000000    5.7483500000    8.8972800000
    99      2    8.1103700000    8.2069700000    1.5560600000
   100      2   11.1144000000    6.7457900000   11.4710000000
   101      2    0.8361670000    2.1340000000   10.1259000000
   102      2    6.8733100000    3.2153700000    9.1372200000
   103      2    2.9392300000    1.6192000000    7.4971700000
   104      2    6.9400200000    5.0418600000    6.1060400000
   105      2    9.9723300000    4.5797600000   11.5600000000
   106      2    2.2181100000    8.3654900000    1.1637600000
   107      2    9.0409700000    3.9465700000    6.5940100000
   108      2   11.8142000000   12.3792000000    0.5743170000
   109      2    7.7241000000    1.8586900000   12.3353000000
   110      2    8.8782400000   10.2596000000    6.6836100000
   111      2    2.8214300000   11.8702000000    7.8197400000
   112      2    8.6770400000    0.7494950000    5.5745000000
   113      2    6.1014900000    7.7486900000    8.1257100000
   114      2    8.3591500000    0.9497390000    9.8551800000
   115      2    5.5195800000   11.3412000000    7.5187500000
   116      2    1.8485500000   12.4012000000   12.3121000000
   117      2    4.4801100000    9.8654100000    5.4736600000
   118      2   12.0581000000    7.2559800000    1.4709800000
   119      2    2.3981400000   10.2890000000    9.8188000000
   120      2    4.1602300000    1.8494500000    2.9400900000
   121      2    9.0439600000    8.9754000000    0.0076414900
   122      2    9.7159400000    6.7077200000    8.6165200000
   123      2    0.9663890000    6.4526500000   10.9705000000
   124      2   12.1656000000    9.9205700000    8.7546400000
   125      2    7.7354800000   12.0099000000    7.2389100000
   126      2    0.1968270000    0.9097010000    3.8306200000
   127      2   10.1845000000    5.4675800000    3.4593800000
   128      2    0.8881420000    9.0679900000    6.8318400000
   129      2    0.7181010000    3.4697900000    0.7987910000
   130      2    6.3687200000    4.9469700000    2.6047100000
   131      2    0.1546230000    8.5450900000    2.5458900000
   132      2    2.2045500000    3.5736300000    6.0477300000
   133      2    5.5761600000   10.7598000000   11.7006000000
   134      2    8.8189100000    0.8690160000    3.2866900000
   135      2    6.0164400000    9.1500500000    9.9686000000
   136      2    6.1705100000   11.1382000000    1.7084500000
   137      2    9.9302400000   11.7332000000    1.7213000000
   138      2   10.9193000000    1.4410200000    8.8950400000
   139      2    3.2106100000    5.6965400000   10.1594000000
   140      2    3.6955200000    3.3833700000    0.8892500000
   141      2    0.0054909800   11.1417000000    5.4086900000
   142      2    5.1096100000    6.8635400000    2.4969400000
   143      2   10.5519000000   10.4898000000   10.6967000000
   144      2   10.6009000000    6.9317600000    5.1939600000
   145      2    2.2143700000    4.6458300000   12.0587000000
   146      2    1.7035600000    5.5871600000    4.4389000000
   147      2   10.9767000000   10.0190000000    2.3535500000
   148      2    8.5158400000    6.3344900000   11.8251000000
   149      2    8.4894200000    4.1540700000    2.3333600000
   150      2    1.3972400000    4.1005800000    7.8617700000
   151      2    4.9233700000    6.3081400000    6.5233200000
   152      2    4.6689700000    9.3746200000    3.3569400000
   153      2    3.7498800000    4.6313400000    5.1916600000
   154      2   11.1647000000    2.5513600000   10.7463000000
   155      2    8.7102200000    8.1435300000    5.3742700000
   156      2    6.9342800000    4.8112200000   10.9389000000
   157      2    1.6523200000    7.0932000000    5.7589200000
   158      2   10.0652000000    8.5219200000    7.3699700000
   159      2    5.3722300000    1.7778100000    4.8244200000
   160      2    5.9132200000    0.7635940000   12.1879000000
   161      2    3.1108100000   11.1020000000    3.3582000000
   162      2    0.7139380000    6.2926600000    7.6512800000
   163      2    6.7690000000    8.1956400000    2.3405900000
   164      2   11.6702000000    7.7414800000   10.4225000000
   165      2    2.0819300000    2.7155900000    9.3286900000
   166      2    6.8097700000    3.0022700000    7.6038400000
   167      2    3.1917600000    1.0180900000    6.0395800000
   168      2    8.0954900000    5.9133100000    5.5148400000
   169      2    9.7713100000    3.0255500000   12.1221000000
   170      2    2.7894400000    8.6895400000   12.2948000000
   171      2    9.9963300000    2.7717200000    6.7921300000
   172      2   12.3728000000    1.4310800000    0.6601430000
   173      2    8.6126300000    1.4612800000    1.1146600000
   174      2    7.8748500000    9.0560400000    7.2825700000
   175      2    3.4790700000   10.4701000000    7.6333400000
   176      2    9.1766200000    2.2645700000    5.1308600000
   177      2    7.4281100000    7.6990200000    8.8464700000
   178      2    7.4626300000   12.2107000000    9.2745000000
   179      2    5.7624600000    0.4287270000    7.1855500000
   180      2    2.1417400000   11.6193000000    1.1365900000
   181      2    4.6648600000    8.8478200000    6.6385600000
   182      2   10.8288000000    6.1155200000    1.5531800000
   183      2    2.1739800000   10.5779000000   11.3751000000
   184      2    3.4108300000    0.5817530000    3.4134000000
   185      2    9.8247100000    7.6309900000    0.4069700000
   186      2    8.2565700000    6.1253000000    8.1226500000
   187      2    2.1567900000    6.8453400000   11.9888000000
   188      2    0.4524300000    9.7817800000   10.1232000000
   189      2    9.1889200000    0.0276407000    7.5855300000
   190      2    0.1654860000    2.0157200000    2.7649300000
   191      2   10.8936000000    4.1831900000    2.9416500000
   192      2    1.4096500000   10.3679000000    7.6348500000
